results/res_prop_muc/res_Cimatti_mathsat_cores/QF_UF/NEQ033_size4.smt.smt2.out

real	0m0.338s
user	0m0.278s
sys	0m0.023s
