results/res_prop_muc/res_Cimatti_mathsat_cores/QF_UF/NEQ033_size4.smt.smt2.res
unsat
( _c0
  _c1383
  _c1386
  _c150
  _c151
  _c152
  _c157
  _c159
  _c160
  _c161
  _c162
  _c163
  _c164
  _c166
  _c1702
  _c1703
  _c1704
  _c1705
  _c1792
  _c1793
  _c1794
  _c1795
  _c1995
  _c1996
  _c1999
  _c2003
  _c2004
  _c2009
  _c2010
  _c2011
  _c2012
  _c2014
  _c2015
  _c2016
  _c2017
  _c2019
  _c2020
  _c2021
  _c2044
  _c2054
  _c2057
  _c2067
  _c2090
  _c2091
  _c2092
  _c2093
  _c2123
  _c2124
  _c2125
  _c2126
  _c2128
  _c2129
  _c2130
  _c2131
  _c2134
  _c2139
  _c2140
  _c2142
  _c2143
  _c2144
  _c2145
  _c2146
  _c2147
  _c2148
  _c2149
  _c2151
  _c2156
  _c2158
  _c2159
  _c2160
  _c2161
  _c2162
  _c2163
  _c2164
  _c2165
  _c2171
  _c2172
  _c2174
  _c2175
  _c2176
  _c2177
  _c2181
  _c2182
  _c2183
  _c2184
  _c2185
  _c2202
  _c2203
  _c2204
  _c2205
  _c2359
  _c2360
  _c2362
  _c2364
  _c2365
  _c2366
  _c2367
  _c2369
  _c2371
  _c2372
  _c2380
  _c2381
  _c2382
  _c2383
  _c2384
  _c2386
  _c2470
  _c2471
  _c2472
  _c2473
  _c2584
  _c2585
  _c2586
  _c2587
  _c2588
  _c2589
  _c2590
  _c2591
  _c2592
  _c2593
  _c2594
  _c2595
  _c2596
  _c2597
  _c2598
  _c2931
  _c2932
  _c2939
  _c2940
  _c2941
  _c2942
  _c2943
  _c298
  _c303
  _c308
  _c313
  _c407
  _c418 )
